Gurobi Optimizer version 9.1.0 build v9.1.0rc0 (linux64)
Thread count: 8 physical cores, 16 logical processors, using up to 16 threads
Optimize a model with 255286 rows, 240480 columns and 1381170 nonzeros
Model fingerprint: 0xe5d0f311
Variable types: 0 continuous, 240480 integer (240480 binary)
Coefficient statistics:
  Matrix range     [1e+00, 1e+00]
  Objective range  [1e+01, 1e+05]
  Bounds range     [1e+00, 1e+00]
  RHS range        [1e+00, 1e+03]
Presolve removed 6030 rows and 30 columns (presolve time = 5s) ...
Presolve added 0 rows and 5970 columns
Presolve removed 30 rows and 0 columns
Presolve time: 5.43s
Presolved: 255256 rows, 246450 columns, 1039110 nonzeros
Variable types: 0 continuous, 246450 integer (246450 binary)
Found heuristic solution: objective 1376986.0000

Concurrent LP optimizer: primal simplex, dual simplex, and barrier
Showing barrier log only...

Root barrier log...

Ordering time: 0.08s

Barrier statistics:
 Dense cols : 240
 AA' NZ     : 8.111e+05
 Factor NZ  : 3.235e+06 (roughly 230 MBytes of memory)
 Factor Ops : 4.332e+08 (less than 1 second per iteration)
 Threads    : 6

                  Objective                Residual
Iter       Primal          Dual         Primal    Dual     Compl     Time
   0   3.75091544e+08 -4.73151538e+08  4.29e+02 2.92e+01  3.33e+04    10s
   1   9.01082713e+06 -6.13821693e+08  2.36e+01 9.98e+03  1.75e+03    10s
   2   1.96559678e+06 -3.68632471e+08  1.70e+00 4.27e+03  5.59e+02    11s
   3   1.59163902e+06 -1.71669500e+08  5.33e-01 1.95e+03  2.47e+02    11s
   4   1.57420741e+06 -7.57252014e+07  4.78e-01 8.36e+02  1.10e+02    12s
   5   1.44196137e+06 -4.76806601e+07  5.65e-02 5.17e+02  6.80e+01    12s
   6   1.41933043e+06 -5.62854218e+06  1.97e-02 7.83e+01  9.71e+00    13s
   7   1.40086494e+06 -9.12438492e+05  1.33e-02 2.31e+01  3.18e+00    13s
   8   1.36408640e+06  3.51965809e+05  9.34e-03 7.89e+00  1.38e+00    13s
   9   1.34163038e+06  8.46824654e+05  8.02e-03 3.38e+00  6.72e-01    14s
  10   1.33261148e+06  9.87793682e+05  7.46e-03 1.90e+00  4.67e-01    14s
  11   1.31539788e+06  1.03337140e+06  6.59e-03 1.39e+00  3.81e-01    15s
  12   1.28074228e+06  1.08342953e+06  5.05e-03 8.05e-01  2.66e-01    16s
  13   1.26188592e+06  1.10540136e+06  4.29e-03 5.65e-01  2.11e-01    16s
  14   1.24182581e+06  1.12210745e+06  3.48e-03 3.72e-01  1.61e-01    17s
  15   1.22736469e+06  1.13343795e+06  2.93e-03 2.50e-01  1.26e-01    18s
  16   1.21647210e+06  1.13963626e+06  2.49e-03 1.79e-01  1.03e-01    18s
  17   1.20604931e+06  1.14524709e+06  2.09e-03 1.17e-01  8.17e-02    19s
  18   1.20004788e+06  1.14880617e+06  1.86e-03 7.77e-02  6.88e-02    19s
  19   1.18681657e+06  1.15015657e+06  1.31e-03 6.41e-02  4.92e-02    20s
  20   1.18424666e+06  1.15153476e+06  1.20e-03 5.05e-02  4.39e-02    20s
  21   1.17978369e+06  1.15246367e+06  1.02e-03 4.14e-02  3.67e-02    21s
  22   1.17638222e+06  1.15317362e+06  8.67e-04 3.49e-02  3.12e-02    21s
  23   1.17294675e+06  1.15384966e+06  7.19e-04 2.89e-02  2.56e-02    22s
  24   1.17007412e+06  1.15452260e+06  5.97e-04 2.31e-02  2.09e-02    23s
  25   1.16860684e+06  1.15495929e+06  5.32e-04 1.92e-02  1.83e-02    23s
  26   1.16564193e+06  1.15535606e+06  4.03e-04 1.61e-02  1.38e-02    24s
  27   1.16473042e+06  1.15572075e+06  3.59e-04 1.32e-02  1.21e-02    24s
  28   1.16406809e+06  1.15604906e+06  3.28e-04 1.06e-02  1.08e-02    25s
  29   1.16333527e+06  1.15619100e+06  2.92e-04 9.42e-03  9.58e-03    25s
  30   1.16276747e+06  1.15644710e+06  2.65e-04 7.48e-03  8.47e-03    26s
  31   1.16191653e+06  1.15654761e+06  2.29e-04 6.69e-03  7.20e-03    26s
  32   1.16136654e+06  1.15673408e+06  2.04e-04 5.14e-03  6.21e-03    27s
  33   1.16082573e+06  1.15679873e+06  1.77e-04 4.60e-03  5.40e-03    27s
  34   1.16037560e+06  1.15685554e+06  1.54e-04 4.21e-03  4.72e-03    28s
  35   1.15999530e+06  1.15697807e+06  1.37e-04 3.27e-03  4.04e-03    28s
  36   1.15976223e+06  1.15708926e+06  1.26e-04 2.44e-03  3.58e-03    29s
  37   1.15944220e+06  1.15713161e+06  1.10e-04 2.14e-03  3.09e-03    29s
  38   1.15930990e+06  1.15715909e+06  1.04e-04 2.00e-03  2.88e-03    30s
  39   1.15916572e+06  1.15719768e+06  9.64e-05 1.70e-03  2.63e-03    30s
  40   1.15896120e+06  1.15722321e+06  8.57e-05 1.42e-03  2.33e-03    31s
  41   1.15881199e+06  1.15724203e+06  7.86e-05 1.30e-03  2.10e-03    31s
  42   1.15870600e+06  1.15725372e+06  7.32e-05 1.18e-03  1.94e-03    32s
  43   1.15861468e+06  1.15726829e+06  6.88e-05 1.07e-03  1.80e-03    32s
  44   1.15845920e+06  1.15729606e+06  5.98e-05 8.73e-04  1.56e-03    33s
  45   1.15839372e+06  1.15730549e+06  5.60e-05 7.83e-04  1.45e-03    33s
  46   1.15821614e+06  1.15731480e+06  4.69e-05 7.01e-04  1.21e-03    34s
  47   1.15813498e+06  1.15733425e+06  4.21e-05 5.08e-04  1.07e-03    34s
  48   1.15799320e+06  1.15734188e+06  3.45e-05 4.49e-04  8.71e-04    35s
  49   1.15794809e+06  1.15735301e+06  3.19e-05 3.73e-04  7.95e-04    35s
  50   1.15790981e+06  1.15735866e+06  2.98e-05 3.33e-04  7.36e-04    36s
  51   1.15781290e+06  1.15736500e+06  2.48e-05 2.85e-04  5.98e-04    36s
  52   1.15778651e+06  1.15736948e+06  2.32e-05 2.53e-04  5.57e-04    37s
  53   1.15772601e+06  1.15737163e+06  1.99e-05 2.39e-04  4.73e-04    37s
  54   1.15768780e+06  1.15737655e+06  1.74e-05 2.12e-04  4.16e-04    38s
  55   1.15765360e+06  1.15738160e+06  1.55e-05 1.82e-04  3.63e-04    38s
  56   1.15762663e+06  1.15738648e+06  1.40e-05 1.48e-04  3.21e-04    39s
  57   1.15757085e+06  1.15738868e+06  1.06e-05 1.29e-04  2.43e-04    39s
  58   1.15754580e+06  1.15739112e+06  9.11e-06 1.12e-04  2.06e-04    40s
  59   1.15752102e+06  1.15739372e+06  7.47e-06 8.91e-05  1.70e-04    40s
  60   1.15750194e+06  1.15739589e+06  6.26e-06 7.14e-05  1.42e-04    41s
  61   1.15747628e+06  1.15739941e+06  4.56e-06 4.26e-05  1.03e-04    41s
  62   1.15745731e+06  1.15740154e+06  3.31e-06 2.89e-05  7.44e-05    42s
  63   1.15744448e+06  1.15740370e+06  2.57e-06 1.48e-05  5.43e-05    42s
  64   1.15743622e+06  1.15740431e+06  2.05e-06 1.10e-05  4.25e-05    43s
  65   1.15743307e+06  1.15740489e+06  1.85e-06 8.32e-06  3.75e-05    43s
  66   1.15742887e+06  1.15740520e+06  1.57e-06 6.32e-06  3.15e-05    44s
  67   1.15742585e+06  1.15740529e+06  1.35e-06 5.94e-06  2.74e-05    44s
  68   1.15741772e+06  1.15740601e+06  7.76e-07 2.38e-06  1.56e-05    44s
  69   1.15741442e+06  1.15740640e+06  5.40e-07 3.72e-07  1.07e-05    45s
  70   1.15741359e+06  1.15740641e+06  4.83e-07 3.34e-07  9.57e-06    45s
  71   1.15741133e+06  1.15740647e+06  3.22e-07 2.42e-07  6.47e-06    45s
  72   1.15740791e+06  1.15740660e+06  8.48e-08 4.40e-08  1.74e-06    46s
  73   1.15740668e+06  1.15740665e+06  1.53e-09 2.89e-08  4.06e-08    46s
  74   1.15740665e+06  1.15740665e+06  4.53e-10 3.05e-08  2.54e-09    46s

Barrier solved model in 74 iterations and 46.35 seconds
Optimal objective 1.15740665e+06


Root crossover log...

  103215 DPushes remaining with DInf 0.0000000e+00                47s
       0 DPushes remaining with DInf 0.0000000e+00                49s

    1345 PPushes remaining with PInf 0.0000000e+00                49s
       0 PPushes remaining with PInf 0.0000000e+00                49s

  Push phase complete: Pinf 0.0000000e+00, Dinf 3.5528203e-10     49s


Root simplex log...

Iteration    Objective       Primal Inf.    Dual Inf.      Time
   19060    1.1574066e+06   0.000000e+00   0.000000e+00     49s
   19060    1.1574066e+06   0.000000e+00   0.000000e+00     49s

Solved with barrier

Root relaxation: objective 1.157407e+06, 19060 iterations, 41.59 seconds
Total elapsed time = 51.31s

    Nodes    |    Current Node    |     Objective Bounds      |     Work
 Expl Unexpl |  Obj  Depth IntInf | Incumbent    BestBd   Gap | It/Node Time

     0     0 1157406.65    0 14077 1376986.00 1157406.65  15.9%     -   55s
H    0     0                    1166163.0000 1157406.65  0.75%     -   58s
H    0     0                    1166076.0000 1157406.65  0.74%     -   61s
H    0     0                    1166054.0000 1157406.65  0.74%     -   65s
     0     0 1157410.29    0 14077 1166054.00 1157410.29  0.74%     -   88s
H    0     0                    1164862.0000 1157410.29  0.64%     -  155s
     0     0 1157410.91    0 13990 1164862.00 1157410.91  0.64%     -  161s
     0     0 1157416.89    0 14089 1164862.00 1157416.89  0.64%     -  180s
H    0     0                    1164861.0000 1157416.89  0.64%     -  185s
     0     0 1157418.49    0 14086 1164861.00 1157418.49  0.64%     -  192s
     0     0 1157418.70    0 14088 1164861.00 1157418.70  0.64%     -  197s
     0     0 1157439.13    0 14036 1164861.00 1157439.13  0.64%     -  228s
     0     0 1157440.01    0 14028 1164861.00 1157440.01  0.64%     -  241s
     0     0 1157440.74    0 14089 1164861.00 1157440.74  0.64%     -  250s
     0     0 1157440.76    0 14084 1164861.00 1157440.76  0.64%     -  257s
     0     0 1157455.02    0 14043 1164861.00 1157455.02  0.64%     -  282s
     0     0 1157455.16    0 14044 1164861.00 1157455.16  0.64%     -  289s
     0     0          -    0      1164861.00 1157455.16  0.64%     -  300s

Cutting planes:
  Gomory: 4
  Zero half: 345

Explored 1 nodes (27541 simplex iterations) in 300.04 seconds
Thread count was 16 (of 16 available processors)

Solution count 6: 1.16486e+06 1.16486e+06 1.16605e+06 ... 1.37699e+06

Time limit reached
Best objective 1.164861000000e+06, best bound 1.157455157368e+06, gap 0.6358%

User-callback calls 32588, time in user-callback 0.39 sec
['/opt/local/stow/gurobi910/linux64/lib/libgurobi91.so']
Result: runtime=300.01sec; objective=1164861
Solution written to /autofs/unityaccount/cremi/mdeboute/Bureau/multi-period-flp/solution/instMulti_I30_J1000_T8_1_result.txt
